178
1000
254
396
567
50
221
457
108
67
51
79
520
588
132
13
32
43
354
32
247
306
242
410
950
45
112
218
282
239
96
619
208
848
399
454
576
800
100
143
668
491
579
62
289
58
245
592
831
476
514
200
131
617
614
524
711
148
676
121
47
252
423
109
76
98
685
285
852
385
127
61
428
615
483
738
49
43
6
462
408
197
568
261
6
200
287
538
726
77
231
73
792
475
79
509
5
451
152
333
896
1
242
477
270
564
329
98
302
704
516
315
641
94
151
106
761
415
798
209
33
151
519
238
398
808
76
894
188
351
67
30
278
57
137
429
359
480
955
525
237
86
144
424
108
117
143
14
486
155
225
385
755
72
419
375
428
933
145
431
417
41
481
111
205
889
604
762
513
76
211
214
122
116
577
583
549
31
85
72
